NAME : lr111.1108900.tour
COMMENT : Cost = 0_1108900
COMMENT : Found by LKH [Keld Helsgaun] Fri Sep 15 17:42:01 2017
TYPE : TOUR
DIMENSION : 118
TOUR_SECTION
1
28
102
70
77
54
41
5
55
13
27
110
96
43
15
45
39
87
17
18
6
61
90
107
117
34
66
10
67
72
36
35
51
114
84
19
46
9
106
85
62
92
101
86
94
97
115
29
2
31
52
82
80
79
30
69
4
78
104
112
8
20
65
50
37
47
48
49
83
108
116
3
58
103
16
44
42
23
75
57
73
22
59
113
53
32
89
63
12
64
11
91
33
21
71
105
111
93
99
38
60
100
98
88
7
95
14
118
74
109
76
24
68
40
56
26
25
81
-1
EOF
